#######################################
### Exact MIP solver for the HHCRSP ###
#######################################
-- Instance file: new-instances/HHCRSP_100_20_45_0.8_R_C.txt
-- Max threads: 4
-- Time limit: 999999 seconds
-- Use initial solution: No
Trivial flow violations prevented generating 44402 variables.
Model exported.
Version identifier: 20.1.0.0 | 2020-11-10 | 9bedb6d68
CPXPARAM_Threads                                 4
CPXPARAM_TimeLimit                               999999
Parallel mode: deterministic, using up to 4 threads for concurrent optimization:
 * Starting dual Simplex on 1 thread...
 * Starting Barrier on 3 threads...
Tried aggregator 1 time.
LP Presolve eliminated 5184 rows and 1314 columns.
Reduced LP has 48574 rows, 46703 columns, and 544126 nonzeros.
Presolve time = 0.50 sec. (142.16 ticks)
Symmetry aggregator did 51020 additional substitutions.

Iteration log . . .
Iteration:     1   Dual objective     =             0.000000
Iteration:   506   Dual objective     =           135.333333

Dual crossover.
  Dual:  Fixing 309 variables.
      308 DMoves:  Infeasibility  8.27709017e-14  Objective  1.37666667e+02
        0 DMoves:  Infeasibility  1.14578791e-13  Objective  1.37666667e+02
  Dual:  Pushed 13, exchanged 296.
  Primal:  Fixing 97 variables.
       96 PMoves:  Infeasibility  6.10622664e-16  Objective  1.37666667e+02
        0 PMoves:  Infeasibility  6.10622664e-16  Objective  1.37666667e+02
  Primal:  Pushed 57, exchanged 40.

Dual simplex solved model.


Solution status from MIP model:
-- Processing time: 0.78 sec.
-- Memory used: 117.218 MB
-- Best bound: inf
-- Obj value: 137.667
-- Gap: inf%
-- Total distance: 413
-- Total tardiness: 0
-- Largest tardiness: 0
